# Solution for model SBL-StripPacking-21
# Objective value = 282
c[0,0] 264
c[0,1] 126.5
c[1,0] 212.5
c[1,1] 100
c[2,0] 47
c[2,1] 208
c[3,0] 295
c[3,1] 211
c[4,0] 288
c[4,1] 16
c[5,0] 210
c[5,1] 253
c[6,0] 270
c[6,1] 37
c[7,0] 287
c[7,1] 236
c[8,0] 288.5
c[8,1] 204
c[9,0] 207.5
c[9,1] 179.5
c[10,0] 278
c[10,1] 213
c[11,0] 222.5
c[11,1] 22.5
c[12,0] 281.5
c[12,1] 272
c[13,0] 190.5
c[13,1] 142
c[14,0] 148
c[14,1] 118
c[15,0] 228
c[15,1] 214.5
c[16,0] 96
c[16,1] 148.5
c[17,0] 146.5
c[17,1] 203.5
c[18,0] 60
c[18,1] 40
c[19,0] 160.5
c[19,1] 175.5
c[20,0] 197
c[20,1] 205.5
h 282
delta[0,1] 1
delta[0,2] 1
delta[0,3] 1
delta[0,4] 0
delta[0,5] 1
delta[0,6] 0
delta[0,7] 1
delta[0,8] 1
delta[0,9] 1
delta[0,10] 1
delta[0,11] 0
delta[0,12] 1
delta[0,13] 1
delta[0,14] 1
delta[0,15] 1
delta[0,16] 1
delta[0,17] 1
delta[0,18] 1
delta[0,19] 1
delta[0,20] 1
delta[1,0] 1
delta[1,2] 1
delta[1,3] 1
delta[1,4] 0
delta[1,5] 1
delta[1,6] 0
delta[1,7] 1
delta[1,8] 0
delta[1,9] 1
delta[1,10] 1
delta[1,11] 0
delta[1,12] 0
delta[1,13] 1
delta[1,14] 1
delta[1,15] 1
delta[1,16] 1
delta[1,17] 1
delta[1,18] 1
delta[1,19] 1
delta[1,20] 1
delta[2,0] 1
delta[2,1] 1
delta[2,3] 0
delta[2,4] 0
delta[2,5] 0
delta[2,6] 0
delta[2,7] 0
delta[2,8] 0
delta[2,9] 0
delta[2,10] 1
delta[2,11] 1
delta[2,12] 1
delta[2,13] 1
delta[2,14] 0
delta[2,15] 1
delta[2,16] 0
delta[2,17] 1
delta[2,18] 0
delta[2,19] 1
delta[2,20] 0
delta[3,0] 0
delta[3,1] 0
delta[3,2] 0
delta[3,4] 0
delta[3,5] 1
delta[3,6] 0
delta[3,7] 1
delta[3,8] 0
delta[3,9] 1
delta[3,10] 0
delta[3,11] 0
delta[3,12] 1
delta[3,13] 0
delta[3,14] 0
delta[3,15] 0
delta[3,16] 0
delta[3,17] 0
delta[3,18] 0
delta[3,19] 0
delta[3,20] 0
delta[4,0] 1
delta[4,1] 1
delta[4,2] 1
delta[4,3] 1
delta[4,5] 1
delta[4,6] 1
delta[4,7] 1
delta[4,8] 1
delta[4,9] 1
delta[4,10] 1
delta[4,11] 0
delta[4,12] 1
delta[4,13] 1
delta[4,14] 0
delta[4,15] 1
delta[4,16] 1
delta[4,17] 1
delta[4,18] 0
delta[4,19] 0
delta[4,20] 0
delta[5,0] 0
delta[5,1] 0
delta[5,2] 0
delta[5,3] 0
delta[5,4] 0
delta[5,6] 0
delta[5,7] 0
delta[5,8] 0
delta[5,9] 0
delta[5,10] 0
delta[5,11] 0
delta[5,12] 1
delta[5,13] 0
delta[5,14] 0
delta[5,15] 0
delta[5,16] 0
delta[5,17] 0
delta[5,18] 0
delta[5,19] 0
delta[5,20] 0
delta[6,0] 1
delta[6,1] 0
delta[6,2] 0
delta[6,3] 1
delta[6,4] 1
delta[6,5] 1
delta[6,7] 1
delta[6,8] 1
delta[6,9] 1
delta[6,10] 1
delta[6,11] 0
delta[6,12] 1
delta[6,13] 1
delta[6,14] 0
delta[6,15] 1
delta[6,16] 1
delta[6,17] 0
delta[6,18] 0
delta[6,19] 0
delta[6,20] 1
delta[7,0] 0
delta[7,1] 0
delta[7,2] 0
delta[7,3] 0
delta[7,4] 0
delta[7,5] 0
delta[7,6] 0
delta[7,8] 0
delta[7,9] 0
delta[7,10] 0
delta[7,11] 0
delta[7,12] 1
delta[7,13] 0
delta[7,14] 0
delta[7,15] 0
delta[7,16] 0
delta[7,17] 0
delta[7,18] 0
delta[7,19] 0
delta[7,20] 0
delta[8,0] 0
delta[8,1] 0
delta[8,2] 0
delta[8,3] 1
delta[8,4] 0
delta[8,5] 1
delta[8,6] 0
delta[8,7] 1
delta[8,9] 1
delta[8,10] 1
delta[8,11] 0
delta[8,12] 1
delta[8,13] 0
delta[8,14] 0
delta[8,15] 0
delta[8,16] 0
delta[8,17] 0
delta[8,18] 0
delta[8,19] 0
delta[8,20] 0
delta[9,0] 1
delta[9,1] 0
delta[9,2] 0
delta[9,3] 1
delta[9,4] 0
delta[9,5] 1
delta[9,6] 0
delta[9,7] 1
delta[9,8] 1
delta[9,10] 1
delta[9,11] 0
delta[9,12] 1
delta[9,13] 0
delta[9,14] 0
delta[9,15] 1
delta[9,16] 0
delta[9,17] 0
delta[9,18] 0
delta[9,19] 0
delta[9,20] 1
delta[10,0] 0
delta[10,1] 0
delta[10,2] 1
delta[10,3] 0
delta[10,4] 0
delta[10,5] 1
delta[10,6] 0
delta[10,7] 1
delta[10,8] 0
delta[10,9] 0
delta[10,11] 1
delta[10,12] 1
delta[10,13] 0
delta[10,14] 1
delta[10,15] 1
delta[10,16] 1
delta[10,17] 1
delta[10,18] 0
delta[10,19] 1
delta[10,20] 1
delta[11,0] 1
delta[11,1] 1
delta[11,2] 1
delta[11,3] 1
delta[11,4] 0
delta[11,5] 1
delta[11,6] 0
delta[11,7] 1
delta[11,8] 1
delta[11,9] 1
delta[11,10] 1
delta[11,12] 1
delta[11,13] 1
delta[11,14] 1
delta[11,15] 1
delta[11,16] 1
delta[11,17] 1
delta[11,18] 1
delta[11,19] 1
delta[11,20] 1
delta[12,0] 0
delta[12,1] 0
delta[12,2] 1
delta[12,3] 0
delta[12,4] 0
delta[12,5] 1
delta[12,6] 0
delta[12,7] 0
delta[12,8] 0
delta[12,9] 0
delta[12,10] 0
delta[12,11] 0
delta[12,13] 1
delta[12,14] 0
delta[12,15] 0
delta[12,16] 1
delta[12,17] 1
delta[12,18] 0
delta[12,19] 1
delta[12,20] 1
delta[13,0] 1
delta[13,1] 0
delta[13,2] 1
delta[13,3] 1
delta[13,4] 0
delta[13,5] 1
delta[13,6] 0
delta[13,7] 1
delta[13,8] 0
delta[13,9] 1
delta[13,10] 1
delta[13,11] 0
delta[13,12] 1
delta[13,14] 1
delta[13,15] 1
delta[13,16] 1
delta[13,17] 1
delta[13,18] 0
delta[13,19] 1
delta[13,20] 1
delta[14,0] 1
delta[14,1] 1
delta[14,2] 1
delta[14,3] 0
delta[14,4] 0
delta[14,5] 1
delta[14,6] 0
delta[14,7] 0
delta[14,8] 0
delta[14,9] 0
delta[14,10] 1
delta[14,11] 0
delta[14,12] 1
delta[14,13] 1
delta[14,15] 0
delta[14,16] 1
delta[14,17] 1
delta[14,18] 0
delta[14,19] 0
delta[14,20] 0
delta[15,0] 0
delta[15,1] 0
delta[15,2] 1
delta[15,3] 0
delta[15,4] 0
delta[15,5] 1
delta[15,6] 0
delta[15,7] 0
delta[15,8] 0
delta[15,9] 0
delta[15,10] 1
delta[15,11] 0
delta[15,12] 1
delta[15,13] 0
delta[15,14] 0
delta[15,16] 0
delta[15,17] 1
delta[15,18] 0
delta[15,19] 1
delta[15,20] 1
delta[16,0] 1
delta[16,1] 1
delta[16,2] 1
delta[16,3] 0
delta[16,4] 0
delta[16,5] 1
delta[16,6] 0
delta[16,7] 0
delta[16,8] 1
delta[16,9] 0
delta[16,10] 1
delta[16,11] 0
delta[16,12] 1
delta[16,13] 1
delta[16,14] 1
delta[16,15] 1
delta[16,17] 1
delta[16,18] 0
delta[16,19] 0
delta[16,20] 1
delta[17,0] 1
delta[17,1] 0
delta[17,2] 1
delta[17,3] 0
delta[17,4] 0
delta[17,5] 1
delta[17,6] 0
delta[17,7] 0
delta[17,8] 0
delta[17,9] 0
delta[17,10] 1
delta[17,11] 0
delta[17,12] 1
delta[17,13] 0
delta[17,14] 0
delta[17,15] 1
delta[17,16] 0
delta[17,18] 0
delta[17,19] 0
delta[17,20] 0
delta[18,0] 1
delta[18,1] 1
delta[18,2] 1
delta[18,3] 0
delta[18,4] 0
delta[18,5] 1
delta[18,6] 0
delta[18,7] 1
delta[18,8] 0
delta[18,9] 1
delta[18,10] 1
delta[18,11] 1
delta[18,12] 1
delta[18,13] 1
delta[18,14] 1
delta[18,15] 1
delta[18,16] 1
delta[18,17] 1
delta[18,19] 1
delta[18,20] 1
delta[19,0] 1
delta[19,1] 0
delta[19,2] 1
delta[19,3] 0
delta[19,4] 0
delta[19,5] 1
delta[19,6] 0
delta[19,7] 0
delta[19,8] 0
delta[19,9] 0
delta[19,10] 1
delta[19,11] 0
delta[19,12] 1
delta[19,13] 0
delta[19,14] 0
delta[19,15] 1
delta[19,16] 0
delta[19,17] 1
delta[19,18] 0
delta[19,20] 0
delta[20,0] 1
delta[20,1] 0
delta[20,2] 0
delta[20,3] 0
delta[20,4] 0
delta[20,5] 1
delta[20,6] 0
delta[20,7] 0
delta[20,8] 0
delta[20,9] 0
delta[20,10] 1
delta[20,11] 0
delta[20,12] 1
delta[20,13] 0
delta[20,14] 0
delta[20,15] 1
delta[20,16] 0
delta[20,17] 0
delta[20,18] 0
delta[20,19] 0
